NAME: NuevoCasoPequenioRenca-2
TYPE: TSP
COMMENT: 16 city problem
DIMENSION: 16
EDGE_WEIGHT_TYPE: EXPLICIT
EDGE_WEIGHT_FORMAT: LOWER_DIAG_ROW
EDGE_WEIGHT_SECTION
 0 1000 1000 1000 32 1000 1000 152 1000 1000 149 1000 1000 1000 1000 1000 
 1000 0 1000 1000 1000 74 1000 1000 1000 1000 1000 1000 1000 1000 1000 1000 
 1000 1000 0 13 1000 1000 1000 1000 1000 1000 1000 33 33 193 1000 1000 
 1000 1000 13 0 1000 1000 1000 1000 1000 1000 1000 33 33 193 1000 1000 
 24 1000 1000 1000 0 1000 1000 1000 1000 1000 1000 1000 1000 1000 1000 1000 
 1000 47 1000 1000 1000 0 48 1000 1000 1000 1000 1000 1000 1000 1000 1000 
 1000 1000 1000 1000 1000 74 0 1000 41 1000 1000 1000 1000 1000 1000 1000 
 24 1000 1000 1000 1000 1000 1000 0 1000 41 149 1000 1000 1000 1000 1000 
 1000 1000 1000 1000 1000 1000 48 1000 0 41 1000 1000 1000 1000 1000 1000 
 1000 1000 1000 1000 1000 1000 1000 152 41 0 1000 1000 1000 1000 1000 1000 
 24 1000 1000 1000 1000 1000 1000 152 1000 1000 0 1000 1000 1000 37 1000
 1000 1000 13 13 1000 1000 1000 1000 1000 1000 1000 0 33 1000 1000 1000 
 1000 1000 13 13 1000 1000 1000 1000 1000 1000 1000 33 0 1000 1000 1000 
 1000 1000 13 13 1000 1000 1000 1000 1000 1000 1000 1000 1000 0 1000 46
 1000 1000 1000 1000 1000 1000 1000 1000 1000 1000 149 1000 1000 1000 0 46
 1000 1000 1000 1000 1000 1000 1000 1000 1000 1000 149 1000 1000 1000 46 0
EOF

